243 5
10 10 10 10 10 

0 0 0 0 0 0 2 2 14 
0 0 0 0 0 0 1 3 
9 0 0 1 0 0 1 4 
8 0 0 6 0 0 1 5 
3 0 0 4 0 0 3 9 8 6 
2 0 0 7 0 0 2 7 141 
7 0 0 4 0 0 2 11 10 
4 0 0 5 0 0 2 11 10 
8 0 0 9 0 0 1 10 
10 0 0 2 0 0 1 12 
5 0 0 6 0 0 1 12 
8 0 0 6 0 0 1 13 
0 0 0 0 0 0 3 36 48 60 
0 0 0 0 0 0 2 15 26 
3 1 1 0 0 0 2 19 16 
9 5 7 0 0 0 1 17 
7 2 3 0 0 0 1 18 
5 3 6 0 0 0 2 24 20 
2 5 3 0 0 0 2 24 20 
7 4 3 0 0 0 2 21 211 
7 10 4 0 0 0 2 29 22 
10 7 6 0 0 0 1 23 
9 7 9 0 0 0 1 25 
3 5 1 0 0 0 1 25 
4 6 6 0 0 0 2 34 27 
9 4 7 0 0 0 1 27 
6 4 4 0 0 0 1 28 
1 7 6 0 0 0 1 30 
10 7 5 0 0 0 1 30 
7 6 8 0 0 0 1 31 
9 3 3 0 0 0 1 32 
7 9 6 0 0 0 1 33 
5 4 4 0 0 0 1 35 
10 1 8 0 0 0 1 35 
0 0 0 0 0 0 1 72 
0 0 0 0 0 0 2 37 40 
8 0 1 0 0 0 2 42 38 
1 0 5 0 0 0 2 39 123 
2 0 4 0 0 0 2 43 41 
4 0 5 0 0 0 1 42 
10 0 4 0 0 0 1 44 
2 0 7 0 0 0 1 43 
5 0 4 0 0 0 1 45 
2 0 5 0 0 0 1 45 
6 0 9 0 0 0 1 46 
6 0 6 0 0 0 1 47 
0 0 0 0 0 0 1 72 
0 0 0 0 0 0 2 49 50 
3 0 0 0 0 1 1 51 
4 0 0 0 0 6 3 58 54 53 
10 0 0 0 0 5 1 52 
6 0 0 0 0 4 2 58 53 
5 0 0 0 0 10 1 55 
5 0 0 0 0 5 1 55 
8 0 0 0 0 3 1 56 
4 0 0 0 0 3 1 57 
1 0 0 0 0 7 2 59 78 
5 0 0 0 0 6 1 59 
0 0 0 0 0 0 1 72 
0 0 0 0 0 0 2 61 62 
1 0 0 0 0 1 3 67 63 217 
5 0 0 0 0 8 2 67 64 
6 0 0 0 0 7 1 64 
2 0 0 0 0 4 1 65 
5 0 0 0 0 2 1 66 
8 0 0 0 0 8 1 68 
5 0 0 0 0 4 1 68 
9 0 0 0 0 6 2 70 69 
4 0 0 0 0 4 1 71 
4 0 0 0 0 6 1 71 
0 0 0 0 0 0 1 72 
0 0 0 0 0 0 4 73 85 97 109 
0 0 0 0 0 0 3 74 79 124 
3 0 0 0 0 1 2 76 75 
8 0 0 0 0 4 2 81 77 
6 0 0 0 0 8 2 81 80 
2 0 0 0 0 6 1 78 
10 0 0 0 0 6 1 80 
7 0 0 0 0 3 1 81 
2 0 0 0 0 5 1 82 
1 0 0 0 0 2 1 82 
2 0 0 0 0 8 1 83 
5 0 0 0 0 7 1 84 
0 0 0 0 0 0 1 121 
0 0 0 0 0 0 4 86 91 93 95 
10 0 0 1 0 0 2 87 102 
10 0 0 4 0 0 1 88 
4 0 0 6 0 0 1 89 
5 0 0 5 0 0 1 90 
10 0 0 5 0 0 1 92 
7 0 0 5 0 0 1 92 
4 0 0 8 0 0 1 94 
8 0 0 7 0 0 1 94 
2 0 0 6 0 0 1 96 
6 0 0 3 0 0 1 96 
0 0 0 0 0 0 1 121 
0 0 0 0 0 0 1 98 
6 0 0 0 0 3 1 99 
6 0 0 0 0 4 3 107 100 239 
10 0 0 0 0 3 2 105 101 
1 0 0 0 0 10 2 104 102 
7 0 0 0 0 6 1 103 
5 0 0 0 0 3 1 106 
8 0 0 0 0 4 1 106 
9 0 0 0 0 5 1 106 
8 0 0 0 0 9 1 108 
4 0 0 0 0 3 1 108 
0 0 0 0 0 0 1 121 
0 0 0 0 0 0 1 110 
5 0 0 0 1 0 1 111 
5 0 0 0 6 0 3 116 115 112 
1 0 0 0 6 0 1 113 
9 0 0 0 6 0 1 114 
8 0 0 0 3 0 2 119 117 
3 0 0 0 4 0 2 119 118 
1 0 0 0 8 0 1 117 
10 0 0 0 2 0 1 118 
1 0 0 0 10 0 2 120 160 
8 0 0 0 4 0 1 120 
0 0 0 0 0 0 1 121 
0 0 0 0 0 0 5 122 134 146 158 170 
0 0 0 0 0 0 2 123 126 
6 0 1 0 0 0 1 124 
10 0 5 0 0 0 2 132 125 
1 0 10 0 0 0 3 130 127 200 
5 0 6 0 0 0 2 130 128 
6 0 5 0 0 0 1 128 
4 0 5 0 0 0 1 129 
1 0 4 0 0 0 1 131 
7 0 4 0 0 0 1 131 
10 0 6 0 0 0 1 133 
1 0 4 0 0 0 1 133 
0 0 0 0 0 0 1 182 
0 0 0 0 0 0 2 135 139 
9 0 0 1 0 0 3 143 141 136 
1 0 0 7 0 0 1 137 
3 0 0 6 0 0 2 138 152 
9 0 0 4 0 0 1 140 
1 0 0 6 0 0 1 140 
10 0 0 6 0 0 1 142 
10 0 0 3 0 0 1 142 
5 0 0 5 0 0 1 144 
8 0 0 5 0 0 1 144 
1 0 0 7 0 0 1 145 
0 0 0 0 0 0 1 182 
0 0 0 0 0 0 2 147 149 
8 0 0 1 0 0 2 152 148 
1 0 0 4 0 0 1 150 
3 0 0 6 0 0 1 150 
7 0 0 9 0 0 3 156 151 160 
6 0 0 5 0 0 1 153 
5 0 0 3 0 0 2 156 155 
10 0 0 6 0 0 1 154 
2 0 0 3 0 0 1 155 
6 0 0 3 0 0 1 157 
4 0 0 10 0 0 1 157 
0 0 0 0 0 0 1 182 
0 0 0 0 0 0 2 159 160 
3 0 0 3 0 0 2 168 161 
5 0 0 7 0 0 2 168 162 
9 0 0 4 0 0 1 162 
5 0 0 2 0 0 1 163 
9 0 0 5 0 0 3 167 164 200 
4 0 0 10 0 0 1 165 
10 0 0 3 0 0 1 166 
7 0 0 4 0 0 1 169 
9 0 0 5 0 0 1 169 
7 0 0 7 0 0 1 169 
0 0 0 0 0 0 1 182 
0 0 0 0 0 0 2 171 177 
5 0 0 0 0 1 2 179 172 
1 0 0 0 0 1 2 180 173 
4 0 0 0 0 6 1 174 
5 0 0 0 0 3 1 175 
2 0 0 0 0 4 2 176 201 
4 0 0 0 0 5 1 178 
1 0 0 0 0 7 1 179 
2 0 0 0 0 6 1 181 
9 0 0 0 0 7 1 181 
7 0 0 0 0 10 1 181 
0 0 0 0 0 0 1 182 
0 0 0 0 0 0 5 183 195 207 219 231 
0 0 0 0 0 0 1 184 
3 0 0 1 0 0 2 193 185 
3 0 0 5 0 0 2 190 186 
8 0 0 6 0 0 2 192 187 
10 0 0 9 0 0 1 188 
6 0 0 4 0 0 1 189 
4 0 0 5 0 0 1 191 
3 0 0 4 0 0 2 191 229 
7 0 0 4 0 0 1 194 
5 0 0 6 0 0 1 194 
9 0 0 6 0 0 1 194 
0 0 0 0 0 0 1 243 
0 0 0 0 0 0 1 196 
4 0 0 0 0 1 3 202 201 197 
1 0 0 0 0 6 1 198 
3 0 0 0 0 9 2 205 199 
10 0 0 0 0 6 1 200 
10 0 0 0 0 4 1 203 
2 0 0 0 0 5 1 203 
6 0 0 0 0 5 2 203 234 
5 0 0 0 0 5 1 204 
7 0 0 0 0 5 1 206 
8 0 0 0 0 4 1 206 
0 0 0 0 0 0 1 243 
0 0 0 0 0 0 3 208 210 217 
2 0 0 1 0 0 1 209 
7 0 0 4 0 0 1 211 
10 0 0 6 0 0 1 211 
2 0 0 7 0 0 3 216 212 221 
6 0 0 4 0 0 1 213 
8 0 0 5 0 0 1 214 
2 0 0 5 0 0 1 215 
1 0 0 7 0 0 1 218 
6 0 0 5 0 0 1 218 
3 0 0 6 0 0 1 218 
0 0 0 0 0 0 1 243 
0 0 0 0 0 0 1 220 
5 0 0 0 0 1 2 227 221 
10 0 0 0 0 9 2 225 222 
1 0 0 0 0 6 1 223 
1 0 0 0 0 6 1 224 
8 0 0 0 0 7 2 229 226 
5 0 0 0 0 3 3 229 228 238 
1 0 0 0 0 4 1 228 
9 0 0 0 0 5 1 228 
4 0 0 0 0 5 1 230 
7 0 0 0 0 4 1 230 
0 0 0 0 0 0 1 243 
0 0 0 0 0 0 1 232 
5 0 1 0 0 0 2 235 233 
8 0 7 0 0 0 1 234 
10 0 6 0 0 0 2 237 236 
6 0 7 0 0 0 2 237 236 
6 0 3 0 0 0 2 239 238 
7 0 3 0 0 0 2 239 238 
6 0 5 0 0 0 1 240 
6 0 8 0 0 0 1 240 
5 0 4 0 0 0 1 241 
10 0 6 0 0 0 1 242 
0 0 0 0 0 0 1 243 
0 0 0 0 0 0 0 
